35
100
69	1
68	1
67	1
66	2
64	1
63	1
62	3
60	2
57	3
54	1
51	1
49	2
48	1
47	1
44	1
43	2
42	2
38	1
37	2
35	1
33	1
32	1
31	2
30	1
28	1
27	1
26	1
25	1
24	1
19	2
18	1
17	1
16	1
13	4
10	1
